n_res = 4;
rcap = [18, 20, 100, 105];
rtype = [1, 1, 2, 2];
n_tasks = 14;
modes = [ {1, 2, 3}, {4, 5, 6}, {7, 8, 9}, {10, 11, 12}, {13, 14, 15}, {16, 17, 18}, {19, 20, 21}, {22, 23, 24}, {25, 26, 27}, {28, 29, 30}, {31, 32, 33}, {34, 35, 36}, {37, 38, 39}, {40, 41, 42} ];
succ = [ {4, 5, 10}, {5, 12, 14}, {8, 9, 10}, {6, 7, 11}, {7, 8}, {8, 12, 14}, {13}, {13}, {11, 13}, {12}, {14}, {}, {}, {} ];
n_opt = 42;
dur = [2, 4, 5, 1, 1, 7, 2, 7, 10, 1, 2, 10, 1, 2, 9, 2, 3, 10, 1, 3, 8, 2, 3, 4, 7, 8, 8, 1, 1, 2, 2, 8, 10, 2, 6, 8, 2, 2, 3, 4, 7, 8];
rreq = [|  7,  6,  4,  2,  2,  1,  9,  9,  8,  8,  4,  2, 10,  5,  5,  7,  5,  3,  4,  3,  3,  8,  7,  6,  5,  4,  5,  5,  4,  2,  4,  4,  1,  5,  5,  5,  8,  5,  2,  6,  6,  6
        |  8,  8,  5,  7,  8,  3,  5,  4,  4,  6,  5,  5, 10,  9,  9, 10,  5,  5,  8,  5,  2,  2,  1,  1,  7,  5,  5,  7,  8,  4,  7,  5,  3,  5,  5,  2,  4,  4,  2,  1,  1,  1
        |  9,  6,  3,  7,  6,  6,  7,  7,  5,  6,  5,  5,  5,  4,  3,  9,  8,  7,  9,  6,  6,  2,  1,  1,  6,  4,  2,  8,  8,  7,  8,  7,  6,  9,  8,  8,  6,  5,  3,  9,  5,  2
        |  8,  7,  5,  4,  4,  2,  7,  7,  4,  7,  6,  6,  9,  6,  4,  9,  8,  8,  6,  5,  3, 10,  9,  9,  7,  6,  5,  9,  7,  2,  5,  2,  1,  7,  6,  4,  7,  8,  1,  9,  5,  3 |];
